RT is False
Default write of storage_offers_DA.csv just to have a file (but constraint should be inactive)
Reading model...
...model read.
creating competitive generators file...
...competitive generators recorded.
Loading data...
.. day-ahead data read.
Compiling instance...
...instance created.
Creating Offer Mitigation (model will solve as dispatch if TRUE)...
...storage offer mitigation file created
Converting model to MPEC...
...converted
NOTE: initial MIP solve with only storage competitive to get feasible solution
Solving...

Welcome to IBM(R) ILOG(R) CPLEX(R) Interactive Optimizer 12.9.0.0
  with Simplex, Mixed Integer & Barrier Optimizers
5725-A06 5725-A29 5724-Y48 5724-Y49 5724-Y54 5724-Y55 5655-Y21
Copyright IBM Corp. 1988, 2019.  All Rights Reserved.

Type 'help' for a list of available commands.
Type 'help' followed by a command name for more
information on commands.

CPLEX> Logfile 'cplex.log' closed.
Logfile 'C:\Users\llavin\Desktop\test715\logs\tmp84emm453.cplex.log' open.
CPLEX> New value for parallel optimization mode: -1
CPLEX> New value for mixed integer optimality gap tolerance: 0.01
CPLEX> New value for deterministic time limit in ticks: 100000
CPLEX> Problem 'C:\Users\llavin\Desktop\test715\logs\tmppqlj_pzv.pyomo.lp' read.
Read time = 0.22 sec. (13.80 ticks)
CPLEX> Problem name         : C:\Users\llavin\Desktop\test715\logs\tmppqlj_pzv.pyomo.lp
Objective sense      : Maximize
Variables            :   53320  [Nneg: 1,  Box: 21805,  Free: 4416,
                                 Binary: 27098]
Objective nonzeros   :    8970
Linear constraints   :  122164  [Less: 40983,  Greater: 58612,  Equal: 22569]
  Nonzeros           :  287247
  RHS nonzeros       :   66947

Variables            : Min LB: -5000.000        Max UB: 1000000.       
Objective nonzeros   : Min   : 0.1000000        Max   : 795.1000       
Linear constraints   :
  Nonzeros           : Min   : 0.1000000        Max   : 1000000.       
  RHS nonzeros       : Min   : 0.1000000        Max   : 1000000.       
CPLEX> CPXPARAM_Parallel                                -1
CPXPARAM_DetTimeLimit                            100000
CPXPARAM_MIP_Tolerances_MIPGap                   0.01
Tried aggregator 3 times.
MIP Presolve eliminated 88324 rows and 19153 columns.
MIP Presolve added 3337 rows and 0 columns.
MIP Presolve modified 24472 coefficients.
Aggregator did 12841 substitutions.
Reduced MIP has 24336 rows, 20744 columns, and 66998 nonzeros.
Reduced MIP has 8198 binaries, 0 generals, 0 SOSs, and 0 indicators.
Presolve time = 0.27 sec. (165.44 ticks)
Probing fixed 416 vars, tightened 5766 bounds.
Probing time = 0.06 sec. (18.64 ticks)
Tried aggregator 2 times.
MIP Presolve eliminated 929 rows and 835 columns.
MIP Presolve modified 2985 coefficients.
Aggregator did 46 substitutions.
Reduced MIP has 23361 rows, 19863 columns, and 64162 nonzeros.
Reduced MIP has 7781 binaries, 0 generals, 0 SOSs, and 0 indicators.
Presolve time = 0.11 sec. (89.43 ticks)
Probing fixed 0 vars, tightened 230 bounds.
Probing time = 0.14 sec. (22.76 ticks)
Clique table members: 42020.
MIP emphasis: balance optimality and feasibility.
MIP search method: dynamic search.
Parallel mode: opportunistic, using up to 32 threads.
Root relaxation solution time = 0.39 sec. (579.01 ticks)

        Nodes                                         Cuts/
   Node  Left     Objective  IInf  Best Integer    Best Bound    ItCnt     Gap

      0     0     4005.9746    82                   4005.9746     5522         
*     0+    0                         4005.9746     4005.9746             0.00%
      0     0        cutoff           4005.9746     4005.9746     5522    0.00%
Elapsed time = 1.44 sec. (1135.86 ticks, tree = 0.01 MB, solutions = 1)

Root node processing (before b&c):
  Real time             =    1.45 sec. (1137.77 ticks)
Parallel b&c, 32 threads:
  Real time             =    0.00 sec. (0.00 ticks)
  Sync time (average)   =    0.00 sec.
  Wait time (average)   =    0.00 sec.
                          ------------
Total (root+branch&cut) =    1.45 sec. (1137.77 ticks)

Solution pool: 1 solution saved.

MIP - Integer optimal solution:  Objective =  4.0059745710e+03
Solution time =    1.45 sec.  Iterations = 5522  Nodes = 0
Deterministic time = 1137.92 ticks  (783.15 ticks/sec)

CPLEX> Incumbent solution written to file 'C:\Users\llavin\Desktop\test715\logs\tmpuu387gjm.cplex.sol'.
CPLEX> NOTE: no warmstart specified for MIP iteration, default behavior is true
NOTE: resolving with all competitive generators using storage-only solution to warmstart
Solving...

Welcome to IBM(R) ILOG(R) CPLEX(R) Interactive Optimizer 12.9.0.0
  with Simplex, Mixed Integer & Barrier Optimizers
5725-A06 5725-A29 5724-Y48 5724-Y49 5724-Y54 5724-Y55 5655-Y21
Copyright IBM Corp. 1988, 2019.  All Rights Reserved.

Type 'help' for a list of available commands.
Type 'help' followed by a command name for more
information on commands.

CPLEX> Logfile 'cplex.log' closed.
Logfile 'C:\Users\llavin\Desktop\test715\logs\tmpft8pncds.cplex.log' open.
CPLEX> New value for parallel optimization mode: -1
CPLEX> New value for mixed integer optimality gap tolerance: 0.01
CPLEX> New value for deterministic time limit in ticks: 100000
CPLEX> Problem 'C:\Users\llavin\Desktop\test715\logs\tmp8j4obsp5.pyomo.lp' read.
Read time = 0.24 sec. (13.82 ticks)
CPLEX> MIP start file 'C:\Users\llavin\Desktop\test715\logs\tmpwi059pqw.cplex.mst' read.
CPLEX> Problem name         : C:\Users\llavin\Desktop\test715\logs\tmp8j4obsp5.pyomo.lp
Objective sense      : Maximize
Variables            :   54040  [Nneg: 1,  Box: 22525,  Free: 4416,
                                 Binary: 27098]
Objective nonzeros   :    9666
Linear constraints   :  122164  [Less: 40983,  Greater: 58612,  Equal: 22569]
  Nonzeros           :  287247
  RHS nonzeros       :   66947

Variables            : Min LB: -5000.000        Max UB: 1000000.       
Objective nonzeros   : Min   : 0.1000000        Max   : 795.1000       
Linear constraints   :
  Nonzeros           : Min   : 0.1000000        Max   : 1000000.       
  RHS nonzeros       : Min   : 0.1000000        Max   : 1000000.       
CPLEX> CPXPARAM_Parallel                                -1
CPXPARAM_DetTimeLimit                            100000
CPXPARAM_MIP_Tolerances_MIPGap                   0.01
Warning:  No solution found from 1 MIP starts.
Retaining values of one MIP start for possible repair.
Tried aggregator 3 times.
MIP Presolve eliminated 88324 rows and 19873 columns.
MIP Presolve added 3337 rows and 0 columns.
MIP Presolve modified 24472 coefficients.
Aggregator did 12841 substitutions.
Reduced MIP has 24336 rows, 20744 columns, and 66998 nonzeros.
Reduced MIP has 8198 binaries, 0 generals, 0 SOSs, and 0 indicators.
Presolve time = 0.28 sec. (165.79 ticks)
Probing fixed 416 vars, tightened 5766 bounds.
Probing time = 0.06 sec. (18.64 ticks)
Tried aggregator 2 times.
MIP Presolve eliminated 929 rows and 835 columns.
MIP Presolve modified 2985 coefficients.
Aggregator did 46 substitutions.
Reduced MIP has 23361 rows, 19863 columns, and 64162 nonzeros.
Reduced MIP has 7781 binaries, 0 generals, 0 SOSs, and 0 indicators.
Presolve time = 0.09 sec. (89.44 ticks)
Probing fixed 0 vars, tightened 230 bounds.
Probing time = 0.14 sec. (22.76 ticks)
Clique table members: 42020.
MIP emphasis: balance optimality and feasibility.
MIP search method: dynamic search.
Parallel mode: opportunistic, using up to 32 threads.
Root relaxation solution time = 0.39 sec. (594.30 ticks)

        Nodes                                         Cuts/
   Node  Left     Objective  IInf  Best Integer    Best Bound    ItCnt     Gap

      0     0    76051.5963   181                  76051.5963     5762         
      0     0    75234.5687    70                    Cuts: 89     5829         
      0     0    75196.9562    78                    Cuts: 23     5865         
      0     0    75157.2387    79                    Cuts: 15     5876         
*     0+    0                        46773.0292    75157.2387            60.68%
      0     0    75156.8899    79    46773.0292  Flowcuts: 12     5882   60.68%
      0     0    75156.8899    68    46773.0292      Cuts: 43     5915   60.68%
      0     0    75146.9721    67    46773.0292      Cuts: 65     5951   60.66%
      0     0    75142.4426    67    46773.0292       Cuts: 6     5954   60.65%
Repair heuristic found nothing.
      0     2    75142.4426    44    46773.0292       Cuts: 9     5955   60.64%
Elapsed time = 6.01 sec. (2939.72 ticks, tree = 0.02 MB, solutions = 1)
    538   138    63518.1148    17    46773.0292    74404.9400     7039   59.08%
   1024   670    69828.5634    23    46773.0292    74404.9400    10341   59.08%
   1648  1113    50450.9166     5    46773.0292    74404.9400    14584   59.08%
   2332  1455    60023.4181    23    46773.0292    74404.9400    17692   59.08%
*  2954+ 2089                        50442.9660    74404.9400            47.50%
   3073  1766    49486.5436     6    50442.9660    74404.9400    19677   47.50%
   3889  2107    51162.2932     5    50442.9660    73967.1347    25863   46.64%
*  4260  2542      integral     0    51520.8574    73895.5168    30134   43.43%
   4744  2248    51163.0668     5    51520.8574    73304.0984    27659   42.28%
   5558  2509    65081.8133    28    51520.8574    73223.3473    35079   42.12%
   6247  3189    63188.8568    29    51520.8574    72198.8087    41227   40.14%
*  6357  3071      integral     0    51520.8606    72198.8087    40223   40.14%
   8221  4783 -6217378.7930    39    51520.8606    65024.0208    61807   26.21%
Elapsed time = 29.94 sec. (9307.65 ticks, tree = 40.78 MB, solutions = 8)
   9094   155    53696.2490    34    51520.8606    65024.0208    64325   26.21%
  10645   479    53267.6717    43    51520.8606    65024.0208    69902   26.21%
  13874  1235    54692.2407    34    51520.8606    58643.2234    80073   13.82%
  16276  2378    52100.7039    27    51520.8606    54117.9442   103679    5.04%
  16971  2170        cutoff          51520.8606    53188.8721   116918    3.24%
  18733  1867        cutoff          51520.8606    52064.8261   125883    1.06%

Cover cuts applied:  6
Implied bound cuts applied:  11
Flow cuts applied:  48
Mixed integer rounding cuts applied:  5
Zero-half cuts applied:  1
Gomory fractional cuts applied:  9

Root node processing (before b&c):
  Real time             =    4.33 sec. (2889.58 ticks)
Parallel b&c, 32 threads:
  Real time             =   49.05 sec. (12525.43 ticks)
  Sync time (average)   =    2.78 sec.
  Wait time (average)   =    0.16 sec.
                          ------------
Total (root+branch&cut) =   53.38 sec. (15415.02 ticks)

Solution pool: 8 solutions saved.

MIP - Integer optimal, tolerance (0.01/1e-06):  Objective =  5.1520860563e+04
Current MIP best bound =  5.2018749020e+04 (gap = 497.888, 0.97%)
Solution time =   53.38 sec.  Iterations = 130107  Nodes = 18859 (1469)
Deterministic time = 15415.17 ticks  (288.81 ticks/sec)

CPLEX> Incumbent solution written to file 'C:\Users\llavin\Desktop\test715\logs\tmpu9_z5_tc.cplex.sol'.
CPLEX> Exporting results... 
